ACES POSCAR
1.0
4.48257626 0.0 0.0
0.0 6.3266187 0.0
0.0 0.0 40.0
Si
8
Direct
0.266518 0.818852 0.471259
0.766518 0.318852 0.471259
0.266518 0.184378 0.471259
0.766518 0.684378 0.471259
0.266517 0.318852 0.528966
0.766517 0.818852 0.528966
0.266517 0.684378 0.528966
0.766517 0.184378 0.528966
